59
1
34
98
19
0
6
32
73
17
63
99
53
20
86
31
28
83
13
54
26
45
60
51
12
41
80
79
23
88
64
70
4
58
75
91
84
46
52
24
92
90
74
2
21
65
76
50
5
3
97
62
35
37
95
11
42
78
29
81
96
38
77
67
40
39
47
71
93
33
57
69
89
44
8
68
15
85
10
87
49
27
43
61
48
94
56
7
82
18
66
22
30
16
55
25
72
36
14
9
